WARNING: for repeatability, setting FPU to use double precision
============================[ Problem Statistics ]=============================
|                                                                             |
|  Number of variables:           100                                         |
|  Number of clauses:             449                                         |
|  Parse time:                   0.00 s                                       |
|  Simplification time:          0.00 s                                       |
|                                                                             |
============================[ Search Statistics ]==============================
| Conflicts |          ORIGINAL         |          LEARNT          | Progress |
|           |    Vars  Clauses Literals |    Limit  Clauses Lit/Cl |          |
===============================================================================
|       100 |     100      449     1347 |      164      100      6 |  0.010 % |
===============================================================================
restarts              : 3
conflicts             : 235            (86175 /sec)
decisions             : 299            (0.00 % random) (109644 /sec)
propagations          : 5308           (1946461 /sec)
conflict literals     : 1462           (21.14 % deleted)
Memory used           : 13.00 MB
CPU time              : 0.002727 s

SATISFIABLE
